39217 38884 
39851 38429 
39565 38700 
39190 38919 
39098 38984 
39575 38639 
38718 39211 
39482 38807 
39783 38516 
40268 38348 
40369 38045 
39034 39001 
38948 39119 
38263 39458 
37892 39650 
38191 39494 
37331 39702 
38972 39056 
40276 38213 
39200 38891 
40334 38065 
39905 38405 
38601 39248 
39234 38848 
38184 39538 
38112 39574 
38483 39382 
39771 38612 
39227 38856 
40648 37789 
40893 37501 
40437 37953 
39630 38614 
40032 38369 
37902 39622 
37830 39658 
40839 37591 
40952 37241 
41062 37200 
40424 38020 
36716 39855 
37316 39800 
41193 37109 
40972 37202 
41202 36977 
40542 37914 
36251 39860 
37324 39745 
37434 39694 
41489 36570 
40758 37738 
41623 35982 
41618 36122 
41340 36836 
41371 36676 
41558 36242 
37606 39661 
40949 37388 
41121 37111 
41200 37031 
40595 37870 
40297 38161 
41822 35680 
41855 35169 
41682 35875 
41930 35061 
41757 35767 
41934 34510 
41841 35194 
41943 34182 
